66 49
28 137
23 158
13 2
35 79
5 175
17 103
28 89
76 20
36 26
3 100
25 29
15 67
24 136
63 66
7 102
20 121
44 21
18 82
5 27
74 55
69 30
7 98
22 181
46 128
51 6
27 146
9 183
28 28
72 10
39 27
14 127
1 161
22 149
24 107
33 14
27 10
1 80
28 33
3 105
68 12
36 110
40 39
6 76
43 50
15 190
76 16
76 58
21 62
75 60
